p tw 52 60
1 2
2 13
3 4
4 5
5 6
6 7
7 8
8 9
9 10
10 11
11 12
12 14
13 24
14 15
15 16
16 17
17 18
18 19
19 20
20 21
20 43
21 22
22 23
23 25
23 43
24 35
25 26
26 27
27 28
28 29
28 37
29 30
30 31
30 39
31 32
32 33
32 37
33 34
34 36
35 46
36 37
36 39
37 38
38 47
39 40
40 41
40 43
41 42
42 43
43 44
44 45
45 47
46 49
47 48
49 50
49 3
50 51
51 52
51 27
52 43
